p cnf 27 107
1 2 3  0
4 5 6  0
7 8 9  0
10 11 12  0
13 14 15  0
16 17 18  0
19 20 21  0
22 23 24  0
25 26 27  0
1 4 7 0
2 5 8 0
3 6 9 0
10 13 16 0
11 14 17 0
12 15 18 0
19 22 25 0
20 23 26 0
21 24 27 0
-1 -10 0
-1 -19 0
-10 -19 0
-2 -11 0
-2 -20 0
-11 -20 0
-3 -12 0
-3 -21 0
-12 -21 0
-4 -13 0
-4 -22 0
-13 -22 0
-5 -14 0
-5 -23 0
-14 -23 0
-6 -15 0
-6 -24 0
-15 -24 0
-7 -16 0
-7 -25 0
-16 -25 0
-8 -17 0
-8 -26 0
-17 -26 0
-9 -18 0
-9 -27 0
-18 -27 0
-2 -1 0
-3 -1 0
-3 -2 0
-5 -4 0
-6 -4 0
-6 -5 0
-8 -7 0
-9 -7 0
-9 -8 0
-11 -10 0
-12 -10 0
-12 -11 0
-14 -13 0
-15 -13 0
-15 -14 0
-17 -16 0
-18 -16 0
-18 -17 0
-20 -19 0
-21 -19 0
-21 -20 0
-23 -22 0
-24 -22 0
-24 -23 0
-26 -25 0
-27 -25 0
-27 -26 0
-4 -1 0
-7 -1 0
-7 -4 0
-5 -2 0
-8 -2 0
-8 -5 0
-6 -3 0
-9 -3 0
-9 -6 0
-13 -10 0
-16 -10 0
-16 -13 0
-14 -11 0
-17 -11 0
-17 -14 0
-15 -12 0
-18 -12 0
-18 -15 0
-22 -19 0
-25 -19 0
-25 -22 0
-23 -20 0
-26 -20 0
-26 -23 0
-24 -21 0
-27 -21 0
-27 -24 0
-10 -2 0
-19 -2 0
-19 -11 0
11 0
-13 -7 0
-22 -7 0
-22 -16 0
17 0
